data/solutions/recovery/wellformed/moderate/binding/wellformed_moderate_instance64/27.sol
Elapsed time: 0.04
Upper bound: 4874.0
Planning weighted value: 130571.0
C[0]=4874.0
C[1]=4868.0
C[2]=4858.0
C[3]=4844.0
C[4]=0.0
y[0]=1
y[1]=3
y[2]=3
y[3]=3
y[4]=1
y[5]=3
y[6]=3
y[7]=1
y[8]=1
y[9]=2
y[10]=2
y[11]=2
y[12]=1
y[13]=1
y[14]=3
y[15]=1
y[16]=1
y[17]=0
y[18]=2
y[19]=0
y[20]=2
y[21]=3
y[22]=3
y[23]=0
y[24]=2
y[25]=2
y[26]=0
y[27]=1
y[28]=3
y[29]=1
y[30]=1
y[31]=0
y[32]=1
y[33]=3
y[34]=1
y[35]=2
y[36]=1
y[37]=3
y[38]=0
y[39]=0
y[40]=2
