data/solutions/recovery/wellformed/moderate/binding/wellformed_moderate_instance64/27.log

Log started (V12.6.3.0) Fri Apr 20 17:49:35 2018

New value for default parallel thread count: 1

Problem '/tmp/tmpMQXjyX.pyomo.lp' read.
Read time = 0.00 sec. (0.08 ticks)

Problem name         : /tmp/tmpMQXjyX.pyomo.lp
Objective sense      : Minimize
Variables            :     212  [Nneg: 1,  Binary: 205,  General Integer: 6]
Objective nonzeros   :       1
Linear constraints   :      94  [Less: 46,  Equal: 48]
  Nonzeros           :    5531
  RHS nonzeros       :      42

Variables            : Min LB: 0.000000         Max UB: 1.000000       
Objective nonzeros   : Min   : 1.000000         Max   : 1.000000       
Linear constraints   :
  Nonzeros           : Min   : 1.000000         Max   : 1963.000       
  RHS nonzeros       : Min   : 1.000000         Max   : 1.000000       
Tried aggregator 2 times.
MIP Presolve eliminated 77 rows and 171 columns.
Aggregator did 4 substitutions.
Reduced MIP has 13 rows, 37 columns, and 76 nonzeros.
Reduced MIP has 36 binaries, 1 generals, 0 SOSs, and 0 indicators.
Presolve time = 0.00 sec. (0.51 ticks)
Found incumbent of value 9633.000000 after 0.00 sec. (0.66 ticks)
Probing time = 0.00 sec. (0.02 ticks)
Cover probing fixed 0 vars, tightened 1 bounds.
Tried aggregator 1 time.
Reduced MIP has 13 rows, 37 columns, and 76 nonzeros.
Reduced MIP has 36 binaries, 1 generals, 0 SOSs, and 0 indicators.
Presolve time = 0.00 sec. (0.05 ticks)
Probing time = 0.00 sec. (0.02 ticks)
Clique table members: 9.
MIP emphasis: balance optimality and feasibility.
MIP search method: dynamic search.
Parallel mode: none, using 1 thread.
Root relaxation solution time = 0.00 sec. (0.03 ticks)

        Nodes                                         Cuts/
   Node  Left     Objective  IInf  Best Integer    Best Bound    ItCnt     Gap

*     0+    0                         9633.0000     4356.0000            54.78%
      0     0     4861.0000     6     9633.0000     4861.0000        7   49.54%
*     0+    0                         5478.0000     4861.0000            11.26%
      0     0     4861.0000     6     5478.0000       Cuts: 3       22   11.26%
*     0+    0                         5179.0000     4861.0000             6.14%
      0     0     4861.0000     8     5179.0000      Fract: 3       35    6.14%
*     0+    0                         5162.0000     4861.0000             5.83%
*     0+    0                         4914.0000     4861.0000             1.08%
      0     2     4861.0000     5     4914.0000     4861.0000       40    1.08%
Elapsed time = 0.01 sec. (1.58 ticks, tree = 0.01 MB, solutions = 5)
*     8     6      integral     0     4874.0000     4861.0000       66    0.27%

Gomory fractional cuts applied:  2

Root node processing (before b&c):
  Real time             =    0.01 sec. (1.59 ticks)
Sequential b&c:
  Real time             =    0.00 sec. (0.33 ticks)
                          ------------
Total (root+branch&cut) =    0.01 sec. (1.92 ticks)

Solution pool: 6 solutions saved.

MIP - Integer optimal solution:  Objective =  4.8740000000e+03
Solution time =    0.01 sec.  Iterations = 90  Nodes = 29
Deterministic time = 1.92 ticks  (179.85 ticks/sec)


Incumbent solution written to file '/tmp/tmpe6EJNH.cplex.sol'.

Log started (V12.6.3.0) Fri Apr 20 17:52:40 2018

New value for default parallel thread count: 1

Problem '/tmp/tmplU9T13.pyomo.lp' read.
Read time = 0.00 sec. (0.08 ticks)

Problem name         : /tmp/tmplU9T13.pyomo.lp
Objective sense      : Minimize
Variables            :     212  [Nneg: 1,  Binary: 205,  General Integer: 6]
Objective nonzeros   :       1
Linear constraints   :      94  [Less: 46,  Equal: 48]
  Nonzeros           :    5531
  RHS nonzeros       :      42

Variables            : Min LB: 0.000000         Max UB: 1.000000       
Objective nonzeros   : Min   : 1.000000         Max   : 1.000000       
Linear constraints   :
  Nonzeros           : Min   : 1.000000         Max   : 1963.000       
  RHS nonzeros       : Min   : 1.000000         Max   : 1.000000       
Tried aggregator 2 times.
MIP Presolve eliminated 77 rows and 171 columns.
Aggregator did 4 substitutions.
Reduced MIP has 13 rows, 37 columns, and 76 nonzeros.
Reduced MIP has 36 binaries, 1 generals, 0 SOSs, and 0 indicators.
Presolve time = 0.00 sec. (0.51 ticks)
Found incumbent of value 9633.000000 after 0.00 sec. (0.66 ticks)
Probing time = 0.00 sec. (0.02 ticks)
Cover probing fixed 0 vars, tightened 1 bounds.
Tried aggregator 1 time.
Reduced MIP has 13 rows, 37 columns, and 76 nonzeros.
Reduced MIP has 36 binaries, 1 generals, 0 SOSs, and 0 indicators.
Presolve time = 0.00 sec. (0.05 ticks)
Probing time = 0.00 sec. (0.02 ticks)
Clique table members: 9.
MIP emphasis: balance optimality and feasibility.
MIP search method: dynamic search.
Parallel mode: none, using 1 thread.
Root relaxation solution time = 0.00 sec. (0.03 ticks)

        Nodes                                         Cuts/
   Node  Left     Objective  IInf  Best Integer    Best Bound    ItCnt     Gap

*     0+    0                         9633.0000     4356.0000            54.78%
      0     0     4861.0000     6     9633.0000     4861.0000        7   49.54%
*     0+    0                         5478.0000     4861.0000            11.26%
      0     0     4861.0000     6     5478.0000       Cuts: 3       22   11.26%
*     0+    0                         5179.0000     4861.0000             6.14%
      0     0     4861.0000     8     5179.0000      Fract: 3       35    6.14%
*     0+    0                         5162.0000     4861.0000             5.83%
*     0+    0                         4914.0000     4861.0000             1.08%
      0     2     4861.0000     5     4914.0000     4861.0000       40    1.08%
Elapsed time = 0.01 sec. (1.58 ticks, tree = 0.01 MB, solutions = 5)
*     8     6      integral     0     4874.0000     4861.0000       66    0.27%

Gomory fractional cuts applied:  2

Root node processing (before b&c):
  Real time             =    0.01 sec. (1.59 ticks)
Sequential b&c:
  Real time             =    0.00 sec. (0.33 ticks)
                          ------------
Total (root+branch&cut) =    0.01 sec. (1.92 ticks)

Solution pool: 6 solutions saved.

MIP - Integer optimal solution:  Objective =  4.8740000000e+03
Solution time =    0.01 sec.  Iterations = 90  Nodes = 29
Deterministic time = 1.92 ticks  (188.72 ticks/sec)


Incumbent solution written to file '/tmp/tmp1dJa_Y.cplex.sol'.
